Version identifier: 22.1.0.0 | 2022-03-09 | 1a383f8ce
CPXPARAM_Read_DataCheck                          1
Tried aggregator 2 times.
MIP Presolve eliminated 257649 rows and 502 columns.
MIP Presolve modified 137600 coefficients.
Aggregator did 200 substitutions.
Reduced MIP has 567499 rows, 60100 columns, and 2079697 nonzeros.
Reduced MIP has 60100 binaries, 0 generals, 0 SOSs, and 0 indicators.
Presolve time = 3.70 sec. (2196.22 ticks)
Probing fixed 2 vars, tightened 0 bounds.
Probing time = 5.46 sec. (2081.56 ticks)
Tried aggregator 1 time.
Detecting symmetries...
MIP Presolve eliminated 2617 rows and 101 columns.
MIP Presolve modified 1376 coefficients.
Reduced MIP has 564882 rows, 59999 columns, and 2074531 nonzeros.
Reduced MIP has 59999 binaries, 0 generals, 0 SOSs, and 0 indicators.
Presolve time = 3.00 sec. (1918.22 ticks)
Probing time = 0.62 sec. (178.48 ticks)
Clique table members: 886991.
MIP emphasis: balance optimality and feasibility.
MIP search method: dynamic search.
Parallel mode: deterministic, using up to 4 threads.
Root relaxation solution time = 22.43 sec. (9986.44 ticks)

        Nodes                                         Cuts/
   Node  Left     Objective  IInf  Best Integer    Best Bound    ItCnt     Gap

      0     0        3.0000   489                      3.0000    60255         
      0     0        3.0000   222                  Cliques: 2    60494         
      0     0        3.0000   313                   Cuts: 166    60965         
      0     0        3.0000   252                  Cliques: 9    61221         
      0     0        3.0000   352                   Cuts: 214    61800         
Detecting symmetries...
      0     2        3.0000   243                      3.0000    61800         
Elapsed time = 162.41 sec. (67763.45 ticks, tree = 0.02 MB, solutions = 0)
      1     3        3.0000   229                      3.0000    62202         
      2     4        3.0000   243                      3.0000    62584         
      4     6        3.0000   208                      3.0000    62923         
      5     5        3.0000   235                      3.0000    62592         
      6     7        3.0000   150                      3.0000    67657         
      8     6    infeasible                            3.0000    66592         
      9    10        3.0000   227                      3.0000    71528         
     10     8    infeasible                            3.0000    79402         
     12     8        3.0193  2101                      3.0000    74925         
     15    12        3.0000   187                      3.0000    94318         
Elapsed time = 188.58 sec. (73696.79 ticks, tree = 0.43 MB, solutions = 0)
     23    14        3.0000   195                      3.0000   103065         
     34    20    infeasible                            3.0000   103512         
     46    35        5.0000   791                      3.0000   112302         
     53    34    infeasible                            3.0000   112330         
     62    36        3.0000   108                      3.0000   113707         
     69    38        3.0000   126                      3.0000   114591         
     77    41        3.0000    80                      3.0000   115185         
     79     5        3.0150  1754                      3.0000    77850         
     80    46        3.0225  2118                      3.0000   131194         
     81    42        3.0112  1773                      3.0000   131030         
Elapsed time = 364.76 sec. (107701.70 ticks, tree = 15.00 MB, solutions = 0)
     83    49        3.0000   156                      3.0000   146931         
     89    50        5.0000   824                      3.0000   149887         
     95    56        5.0000   798                      3.0000   150126         
     99    58        5.0000   772                      3.0000   150454         
    103    58    infeasible                            3.0000   150983         
    109    58        3.0000   110                      3.0000   151252         
    113    62        3.0506  2122                      3.0000   156608         
    115    63        3.0562  2113                      3.0000   161805         
    119    66        3.0090  1634                      3.0000   165698         
    120    66        3.0281  1978                      3.0000   170384         
Elapsed time = 503.30 sec. (135152.77 ticks, tree = 16.08 MB, solutions = 0)
    121    67        3.0000   116                      3.0000   171268         
    122    67        3.0449  2111                      3.0000   174889         
    126    70        3.0393  2119                      3.0000   180084         
    128    71        3.0048  1702                      3.0000   184311         
    129    71        3.0539  2115                      3.0000   195807         
    130    72        5.0000   757                      3.0000   204416         
    140    82        5.0000   703                      3.0000   204554         
    141    83        5.0000   700                      3.0000   204556         
    152    94        5.0000   654                      3.0000   204627         
    163   105        5.0000   619                      3.0000   204657         
Elapsed time = 660.07 sec. (160862.72 ticks, tree = 19.30 MB, solutions = 0)
    173   115        5.0000   570                      3.0000   204743         
    181   123        5.0000   515                      3.0000   204822         
    191   133        5.0000   463                      3.0000   204902         
    201   143        5.0000   388                      3.0000   205194         
    211   153        5.0000   275                      3.0000   205300         
    221   163        5.0000   106                      3.0000   205347         
    229   171        5.0449  2078                      3.0000   209088         
    231   173        5.0449  1991                      3.0000   211294         
    232   174        5.0112  1915                      3.0000   223975         
    233   175        5.0787  2117                      3.0000   226261         
Elapsed time = 921.84 sec. (222669.00 ticks, tree = 25.09 MB, solutions = 0)
    234    38        3.0112  1883                      3.0000   142701         
    236   176        3.0000   104                      3.0000   259584         
    238   177        3.0257  1987                      3.0000   262464         
    241   179        7.0000   744                      3.0000   266213         
    243   181        7.0000   738                      3.0000   267076         
    245   183        7.0000   732                      3.0000   267130         
    250   188        7.0000   714                      3.0000   267490         
    255   193        7.0000   705                      3.0000   282657         
    257   195        7.0000   699                      3.0000   282660         
    260   198        7.0000   690                      3.0000   282667         
Elapsed time = 981.57 sec. (241670.88 ticks, tree = 35.55 MB, solutions = 0)
    263   201        7.0000   680                      3.0000   282671         
    268   204        7.0000   671                      3.0000   282675         
    269   181        3.0000   108                      3.0000   273885         
    270   181        3.0449  2081                      3.0000   275678         
    272    45        3.0112  1791                      3.0000   144990         
    274   197        3.0000   180                      3.0000   318702         
    280   201        3.0000   169                      3.0000   318737         
    283   202        3.0187  1917                      3.0000   321390         
    285   203        5.0000   682                      3.0000   322884         
    291   209        5.0000   570                      3.0000   323532         
Elapsed time = 1068.08 sec. (260662.69 ticks, tree = 30.15 MB, solutions = 0)
    298   216        5.0000   395                      3.0000   323713         
    301   219        5.0000   170                      3.0000   323846         
    310   228        5.0000   124                      3.0000   324015         
    311   229        5.0000    64                      3.0000   324046         
    313   230        5.0199  1660                      3.0000   325679         
    314   230        5.0013  1214                      3.0000   326662         
    315   230        5.0130  1684                      3.0000   329214         
    316   231        7.0000   714                      3.0000   330384         
    321   236        7.0000   699                      3.0000   330406         
    331   246        7.0000   669                      3.0000   330456         
Elapsed time = 1152.68 sec. (283823.13 ticks, tree = 33.31 MB, solutions = 0)
    341   256        7.0000   625                      3.0000   330575         
    351   266        7.0000   588                      3.0000   330627         
    359   274        7.0000   453                      3.0000   330865         
    361   276        7.0000   446                      3.0000   330878         
    371   286        7.0000   385                      3.0000   330953         
    381   296        7.0000   230                      3.0000   331052         
    391   306        7.0000   108                      3.0000   331201         
    402   255        7.0000   640                      3.0000   330488         
    412   264        7.0000   602                      3.0000   330598         
    422   273        7.0000   569                      3.0000   330651         
Elapsed time = 1187.03 sec. (295592.36 ticks, tree = 61.70 MB, solutions = 0)
    431   282        7.0000   533                      3.0000   330692         
    441   290        7.0000   459                      3.0000   330840         
    450   299        7.0000   398                      3.0000   331027         
    461   309        7.0000   226                      3.0000   331219         
    471   319        7.0000   122                      3.0000   331246         
*   473   249      integral     0        7.0000        3.0000   331365   57.14%
    474   329        7.0112  1664        7.0000        3.0000   339218   57.14%
    475   330        7.0787  1954        7.0000        3.0000   340992   57.14%
    476   330        7.0192  1668        7.0000        3.0000   341884   57.14%
    478   330        7.0225  1939        7.0000        3.0000   342567   57.14%
    504   356        9.0000   612        7.0000        3.0000   343649   57.14%
Elapsed time = 1413.33 sec. (312742.06 ticks, tree = 72.91 MB, solutions = 1)
    528   380        9.0000   371        7.0000        3.0000   344129   57.14%
    536   193        5.0000   716        7.0000        3.0000   329355   57.14%

Performing restart 1

Repeating presolve.
Tried aggregator 2 times.
MIP Presolve eliminated 556050 rows and 58798 columns.
MIP Presolve modified 200 coefficients.
Aggregator did 100 substitutions.
Reduced MIP has 8732 rows, 1101 columns, and 35935 nonzeros.
Reduced MIP has 1101 binaries, 0 generals, 0 SOSs, and 0 indicators.
Presolve time = 0.30 sec. (364.03 ticks)
Tried aggregator 1 time.
MIP Presolve eliminated 189 rows and 114 columns.
Reduced MIP has 8543 rows, 987 columns, and 35351 nonzeros.
Reduced MIP has 987 binaries, 0 generals, 0 SOSs, and 0 indicators.
Presolve time = 0.06 sec. (42.79 ticks)
Tried aggregator 1 time.
MIP Presolve eliminated 1782 rows and 196 columns.
Reduced MIP has 6761 rows, 791 columns, and 28611 nonzeros.
Reduced MIP has 791 binaries, 0 generals, 0 SOSs, and 0 indicators.
Presolve time = 0.05 sec. (37.54 ticks)
Tried aggregator 1 time.
MIP Presolve eliminated 2239 rows and 90 columns.
Reduced MIP has 4522 rows, 701 columns, and 19420 nonzeros.
Reduced MIP has 701 binaries, 0 generals, 0 SOSs, and 0 indicators.
Presolve time = 0.03 sec. (24.90 ticks)
Tried aggregator 1 time.
Reduced MIP has 4522 rows, 701 columns, and 19420 nonzeros.
Reduced MIP has 701 binaries, 0 generals, 0 SOSs, and 0 indicators.
Presolve time = 0.02 sec. (18.48 ticks)
Represolve time = 0.68 sec. (613.27 ticks)
    537     0        3.0000   172        7.0000      Cuts: 25   394223   57.14%
    537     0        3.0000   183        7.0000     Cuts: 101   394322   57.14%
   1098   334        5.0000   423        7.0000        3.0000   419207   57.14%
*  1443+  572                            5.0000        3.0000            40.00%
*  1894   123      integral     0        3.0000        3.0000   442282    0.00%

Clique cuts applied:  43
Zero-half cuts applied:  1

Root node processing (before b&c):
  Real time             =  161.37 sec. (66960.27 ticks)
Parallel b&c, 4 threads:
  Real time             = 1258.74 sec. (307183.81 ticks)
  Sync time (average)   =  279.71 sec.
  Wait time (average)   =    0.00 sec.
                          ------------
Total (root+branch&cut) = 1420.11 sec. (374144.08 ticks)
y[0] = 1.0
y[1] = 1.0
y[2] = 1.0
y[3] = 1.0
